3 
4  33 47 
5  04 26 42 56 
6  11 26 41 56 
7  11 26 41 56 
8  11 26 41 56 
9  11 26 41 56 
10  11 26 41 56 
11  11 26 41 56 
12  11 26 41 56 
13  11 26 41 56 
14  11 26 41 56 
15  11 26 41 56 
16  11 26 41 56 
17  11 26 41 56 
18  11 26 41 56 
19  11 26 41 56 
20  11 26 41 56 
21  11 26 41 56 
22  11 26 51 
23  14 
0 
